c Generated by SAT Solver
p cnf 1002 44
101 102 0
201 202 0
301 302 0
401 402 0
501 502 0
601 602 0
701 702 0
801 802 0
901 902 0
1001 1002 0
-101 -102 0
-201 -202 0
-301 -302 0
-401 -402 0
-501 -502 0
-601 -602 0
-701 -702 0
-801 -802 0
-901 -902 0
-1001 -1002 0
-101 -201 0
-102 -202 0
-101 -301 0
-102 -302 0
-101 -401 0
-102 -402 0
-101 -901 0
-102 -902 0
-201 -301 0
-202 -302 0
-201 -901 0
-202 -902 0
-301 -401 0
-302 -402 0
-301 -501 0
-302 -502 0
-301 -701 0
-302 -702 0
-301 -901 0
-302 -902 0
-401 -901 0
-402 -902 0
-501 -701 0
-502 -702 0
